HFSDDW
15	6	3
0	30	1	57	2	93
0	34	1	25	2	66
0	49	1	92	2	88
0	50	1	15	2	98
0	19	1	98	2	26
0	65	1	57	2	23
0	46	1	95	2	83
0	45	1	11	2	64
0	44	1	73	2	78
0	80	1	71	2	99
0	12	1	8	2	52
0	11	1	96	2	80
0	95	1	71	2	18
0	63	1	79	2	28
0	96	1	97	2	85
LBCmax: 530
RELDUE
-1	178	8	7
-1	252	2	9
-1	247	4	1
-1	182	5	1
-1	218	1	5
-1	228	7	8
-1	263	1	8
-1	221	2	5
-1	180	5	2
-1	175	8	3
-1	248	8	9
-1	208	6	2
-1	190	4	2
-1	254	5	3
-1	213	9	2
DDW
171	185
234	270
225	269
169	195
201	235
226	230
260	266
219	223
169	191
161	189
228	268
191	225
173	207
234	274
194	232
